(declare-fun a_ack!45 () (_ BitVec 32))
(declare-fun b_ack!44 () (_ BitVec 64))
(declare-fun FPCHECK_FMUL_ACCURACY ((_ BitVec 64) (_ BitVec 64)) Bool)
(assert (not (bvslt a_ack!45 #x00000000)))
(assert (= #x00000000 a_ack!45))
(assert (not (fp.leq ((_ to_fp 11 53) b_ack!44) ((_ to_fp 11 53) #x0000000000000000))))
(assert (not (fp.lt ((_ to_fp 11 53) b_ack!44) ((_ to_fp 11 53) #x4010000000000000))))
(assert (fp.lt ((_ to_fp 11 53) b_ack!44) ((_ to_fp 11 53) #x4330000000000000)))
(assert (FPCHECK_FMUL_ACCURACY b_ack!44 b_ack!44))

(check-sat)
(exit)
